(set-logic QF_S)
(declare-fun var_0xINPUT_263575 () String)
(assert (and (= (len var_0xINPUT_263575) 0) (= (len var_0xINPUT_263575) 0) (not (= var_0xINPUT_263575 "6JX7G3VKFq"))))
(check-sat var_0xINPUT_263575)